
%FILE DATA:	Soccer Computational Problem for MiniZinc Models	%
%AUTHOR:	Jack Wall	%
%CONTACT:  	116397063@umail.ucc.ie			%
%LAST UPDATE:	03/02/2020, 18:19:35						%
%DESCRIPTION: 	82 games played with 28 games left				%


n=11; %number of teams

%Games to play
games=[|7,11|2,7|10,7|5,1|4,8|8,9|11,2|9,7|10,8|9,1|4,7|6,10|5,10|10,6|2,6|2,10|11,9|5,11|1,11|3,9|5,9|7,1|4,6|9,6|11,3|1,4|6,1|7,2|];

%Initial points
iPoints=[17,25,28,21,16,12,22,17,14,23,27];

%POSITION CONSTRAINTS
% [|teamID, operator, position|...]
% operators index:
%  1 for =  operator
%  2 for >  operator
%  3 for >= operator
%  4 for <  operator
%  5 for <= operator
positionConstraints=[|7,5,1|11,5,2|];